(declare-const a Real)
(declare-const b Real)
(declare-const c Real)
(assert (= (* a b c) 1))
(assert (> a 0))
(assert (> b 0))
(assert (> c 0))
(assert (not (<= (+ (* -4304 (pow a 4)) (* 234 (pow (+ a b) 4)) (* -19792 (pow a (/ 1152 1237)) (pow b (/ 3796 1237))) (* 1600 b (pow a 3)) (* 6912 (pow a (/ 5 3)) (pow b (/ 7 3))) (* 11840 a (pow b 3))) 0)))
(check-sat)
(get-model)
(exit)